/*  */
max: f;
f = r1 + r2;
f - f1 <= 0;
f - f2 <= 0;

f1 =  0v1 + 4v2 - 2v3 + 2v4;
f2 =  0v1 - 2v2 + 2v3 + 0v4;

v1 + v2 + v3 + v4 = 1;
v1 <= 1;
v2 <= 1;
v3 <= 1;
v4 <= 1;
v1 >= 0;
v2 >= 0;
v3 >= 0;
v4 >= 0;

free f, r1, r2, f1, f2;
